Tried aggregator 1 time.
MIP Presolve eliminated 2218 rows and 1206 columns.
MIP Presolve modified 222554 coefficients.
Reduced MIP has 1180 rows, 1994 columns, and 109382 nonzeros.
Reduced MIP has 1994 binaries, 0 generals, 0 SOSs, and 0 indicators.
Presolve time = 0,97 sec. (1192,12 ticks)
Found incumbent of value 275,000000 after 1,24 sec. (1443,97 ticks)
Probing time = 0,06 sec. (9,46 ticks)
Tried aggregator 1 time.
MIP Presolve eliminated 55 rows and 6 columns.
MIP Presolve modified 3465 coefficients.
Reduced MIP has 1125 rows, 1988 columns, and 106705 nonzeros.
Reduced MIP has 1988 binaries, 0 generals, 0 SOSs, and 0 indicators.
Presolve time = 0,26 sec. (234,57 ticks)
Probing time = 0,02 sec. (9,44 ticks)
Clique table members: 3050.
MIP emphasis: balance optimality and feasibility.
MIP search method: dynamic search.
Parallel mode: deterministic, using up to 8 threads.
Root relaxation solution time = 0,06 sec. (34,18 ticks)

        Nodes                                         Cuts/
   Node  Left     Objective  IInf  Best Integer    Best Bound    ItCnt     Gap

*     0+    0                          275,0000        0,0000           100,00%
*     0+    0                          222,0000        0,0000           100,00%
*     0+    0                          209,0000        0,0000           100,00%
*     0+    0                          190,0000        0,0000           100,00%
*     0+    0                          181,0000        0,0000           100,00%
*     0+    0                          172,0000        0,0000           100,00%
*     0+    0                          154,0000        0,0000           100,00%
*     0+    0                          139,0000        0,0000           100,00%
      0     0      101,0167    84      139,0000      101,0167      243   27,33%
*     0+    0                          113,0000      101,0167            10,60%
*     0+    0                          108,0000      101,0167             6,47%
      0     0      106,1908    56      108,0000     Cuts: 124      378    1,68%
      0     0        cutoff            108,0000      108,0000      388    0,00%
Elapsed time = 2,23 sec. (2179,09 ticks, tree = 0,01 MB, solutions = 10)

GUB cover cuts applied:  22
Clique cuts applied:  13
Cover cuts applied:  3
Implied bound cuts applied:  29
Flow cuts applied:  5
Mixed integer rounding cuts applied:  28
Zero-half cuts applied:  22
Gomory fractional cuts applied:  3

Root node processing (before b&c):
  Real time             =    2,23 sec. (2179,73 ticks)
Parallel b&c, 8 threads:
  Real time             =    0,00 sec. (0,00 ticks)
  Sync time (average)   =    0,00 sec.
  Wait time (average)   =    0,00 sec.
                          ------------
Total (root+branch&cut) =    2,23 sec. (2179,73 ticks)

